outputs/case_37.model.txt
internal_control_executed = False
violation_178_1_4 = True
violation_178_1_minor = True
violate_article_93_95_102 = False
violate_article_159 = False
violate_article_69_1 = False
violate_article_18_2_rules = True
violate_article_144 = False
violate_article_152 = False
refuse_inspection = False
violate_article_14_3 = False
not_comply_document_requirements = False
violate_article_90 = False
violate_article_22_4_44_4_60_2_62_2_70 = False
violate_article_14_1_3 = False
obstruct_inspection = False
violate_article_58 = False
violate_article_145_2 = False
not_submit_required_documents = False
violate_article_165_1 = False
violate_article_165_2 = False
violate_article_61 = False
violate_article_14_1_1 = False
violate_article_141 = False
violate_article_21_1_5 = False
violate_article_79 = False
evade_inspection = False
violate_article_147 = False
violate_article_62_2 = False
internal_control_updated = True
accept_proxy_without_power_of_attorney_except_auto_rebalance_responsible = False
accept_different_account_offset_trading = False
accept_full_discretionary_trust_by_responsible_person = False
prohibited_behavior_37_13 = True
internal_control_established = True
responsible_person_prohibited_4 = True
violation_178_1_5 = True
prohibited_behavior_37_7 = True
prohibited_behavior_37_4 = True
accept_non_self_account_opening_responsible = False
use_duty_info_for_trading = False
use_non_securities_personnel_or_unreasonable_commission = False
responsible_person_prohibited_11 = True
prohibited_behavior_37_10 = True
misappropriate_client_securities_or_funds = False
responsible_person_prohibited_8 = True
accept_proxy_trading_by_internal_personnel_responsible = False
prohibited_behavior_37_11 = True
accept_non_self_account_opening = False
recommend_specific_stock_to_public_except_underwriting = False
self_dealing_by_responsible_person = False
responsible_person_prohibited_2 = True
set_fixed_place_outside_office_for_trading = False
violate_settlement_obligation = False
violation_178_1_7 = False
use_others_or_relatives_name_for_client_trading = False
provide_specific_benefits_or_losses = False
prohibited_behavior_37_3 = True
prohibited_behavior_37_12 = True
accept_trading_with_material_nonpublic_info_or_market_manipulation_intent = False
provide_price_movement_prediction = False
violation_56 = False
violate_article_56 = False
execute_trades_according_to_client_instructions = False
provide_false_or_fraudulent_information = False
internal_control_system_updated_within_deadline = True
responsible_person_prohibited_24 = True
prohibited_behavior_37_14 = True
custody_of_client_securities_or_funds = False
illegal_disclosure_by_responsible_person = False
responsible_person_prohibited_14 = True
violation_178_1_3 = False
violation_178_1_2 = False
responsible_person_prohibited_21 = True
prohibited_behavior_37_1 = True
responsible_person_prohibited_15 = True
prohibited_behavior_37_16 = True
responsible_person_honest = True
accept_trading_with_material_nonpublic_info_or_market_manipulation_intent_responsible = False
prohibited_behavior_37_5 = True
internal_control_system_established = True
provide_account_for_client_trading = False
illegal_disclosure_of_client_info = False
responsible_person_prohibited_13 = True
prohibited_behavior_37_6 = True
responsible_person_prohibited_9 = True
prohibited_behavior_37_22 = True
responsible_person_prohibited_7 = True
loan_or_securities_mediation_with_client = False
accept_same_account_offset_trading_except_37_1 = False
responsible_person_prohibited_23 = True
responsible_person_prohibited_3 = True
prohibited_behavior_37_9 = True
responsible_person_prohibited_1 = True
accept_full_discretionary_trust = False
prohibited_behavior_37_8 = True
other_violations_of_securities_regulations = False
provide_price_movement_prediction_by_responsible_person = False
other_violations_by_responsible_person = False
joint_risk_sharing_with_client = False
improper_benefit_agreement_with_issuer = False
proxy_trading_except_legal_agent = False
misappropriate_or_custody_by_responsible_person = False
responsible_person_prohibited_6 = True
prohibited_behavior_37_17 = True
concealment_or_fraud_in_underwriting_or_trading = False
responsible_person_prohibited_22 = True
responsible_person_prohibited_16 = True
use_client_name_or_account_for_trading = False
solicit_unapproved_securities_or_derivatives = False
prohibited_behavior_37_20 = True
responsible_person_prohibited_12 = True
prohibited_behavior_37_19 = True
accept_client_without_proper_trust_contract_by_responsible_person = False
set_fixed_place_outside_office_for_contract_or_settlement = False
accept_proxy_trading_by_internal_personnel = False
prohibited_behavior_37_15 = True
accept_offset_trading_by_responsible_person_except_legal_exceptions = False
prohibited_behavior_37_18 = True
profit_guarantee_or_sharing_by_responsible_person = False
execute_business_with_honesty_and_credit = True
accept_client_without_proper_trust_contract = False
accept_proxy_without_power_of_attorney_except_auto_rebalance = False
responsible_person_prohibited_18 = True
unapproved_margin_or_securities_lending = False
responsible_person_prohibited_10 = True
responsible_person_prohibited_20 = True
prohibited_behavior_37_21 = True
responsible_person_prohibited_5 = True
responsible_person_prohibited_19 = True
violation_178_1_1 = False
prohibited_behavior_37_2 = True
responsible_person_prohibited_17 = True
business_operated_according_to_law_and_internal_control = True
penalty = False
use_client_name_or_account_by_responsible_person = False
violation_178_1_6 = False
internal_control_compliant = True